SCIP version 0.82 [precision: 8 byte] [memory: block] [mode: optimized] [LP solver: SOPLEX 1.3.0]
Copyright (c) 2002-2006 Konrad-Zuse-Zentrum fuer Informationstechnik Berlin (ZIB)

reading parameter file <scip.set>

read problem </ufs/psxjm3/instances/random_1.ctt.c.zpl>
============

****************************************************
* Zuse Institute Mathematical Programming Language *
* Release 2.04  Copyright (C)2005 by Thorsten Koch *
****************************************************

original problem has 5400 variables (5400 bin, 0 int, 0 impl, 0 cont) and 1785 constraints

solve problem
=============

LP Solver <SOPLEX 1.3.0>: dual feasibility tolerance cannot be set -- tolerance of SCIP and LP solver may differ
LP Solver <SOPLEX 1.3.0>: barrier convergence tolerance cannot be set -- tolerance of SCIP and LP solver may differ
LP Solver <SOPLEX 1.3.0>: fastmip setting not available -- SCIP parameter has no effect
LP Solver <SOPLEX 1.3.0>: scaling not available -- SCIP parameter has no effect
LP Solver <SOPLEX 1.3.0>: presolving not available -- SCIP parameter has no effect
transformed problem has 5400 variables (5400 bin, 0 int, 0 impl, 0 cont) and 1785 constraints
   1785 constraints of type <linear>

presolving:
(round 1) 642 del vars, 23 del conss, 642 chg bounds, 0 chg sides, 0 chg coeffs, 0 upgd conss, 0 impls, 1425 clqs
(round 2) 642 del vars, 147 del conss, 642 chg bounds, 0 chg sides, 0 chg coeffs, 0 upgd conss, 0 impls, 1425 clqs
(round 3) 642 del vars, 1022 del conss, 642 chg bounds, 881 chg sides, 0 chg coeffs, 0 upgd conss, 0 impls, 1425 clqs
(round 4) 642 del vars, 1022 del conss, 642 chg bounds, 881 chg sides, 0 chg coeffs, 707 upgd conss, 0 impls, 1425 clqs
   (0.8s) probing: 100/4758 (2.1%) - 0 fixings, 0 aggregations, 0 implications, 0 bound changes
presolving (5 rounds):
 642 deleted vars, 1022 deleted constraints, 642 tightened bounds, 0 added holes, 881 changed sides, 0 changed coefficients
 0 implications, 1425 cliques
presolved problem has 4758 variables (4758 bin, 0 int, 0 impl, 0 cont) and 763 constraints
    707 constraints of type <setppc>
     56 constraints of type <linear>
objective value is always integral
Presolving Time: 0.76

 time | node  | left  |LP iter| mem |mdpt |frac |vars |cons |ccons|cols |rows |cuts |confs|strbr|  dualbound   | primalbound  |  gap   
  1.0s|     1 |     0 |   665 |  14M|   0 |  62 |4758 | 763 | 763 |4758 | 763 |   0 |   0 |   0 | 0.000000e+00 |      --      |    Inf 
  1.1s|     1 |     0 |   723 |  14M|   0 | 109 |4758 | 763 | 763 |4758 | 766 |   3 |   0 |   0 | 0.000000e+00 |      --      |    Inf 
  1.2s|     1 |     0 |   740 |  14M|   0 | 121 |4758 | 763 | 763 |4758 | 772 |   9 |   0 |   0 | 0.000000e+00 |      --      |    Inf 
  1.3s|     1 |     0 |   773 |  14M|   0 | 142 |4758 | 763 | 763 |4758 | 775 |  12 |   0 |   0 | 0.000000e+00 |      --      |    Inf 
  1.4s|     1 |     0 |   796 |  14M|   0 | 146 |4758 | 763 | 763 |4758 | 781 |  18 |   0 |   0 | 0.000000e+00 |      --      |    Inf 
  1.6s|     1 |     0 |   803 |  14M|   0 | 145 |4758 | 763 | 763 |4758 | 786 |  23 |   0 |   0 | 0.000000e+00 |      --      |    Inf 
  1.7s|     1 |     0 |   808 |  14M|   0 | 144 |4758 | 763 | 763 |4758 | 788 |  25 |   0 |   0 | 0.000000e+00 |      --      |    Inf 
F 3.1s|     1 |     2 |  1119 |  14M|   0 |   0 |4758 | 763 | 763 |4758 | 788 |  25 |   0 |  33 | 0.000000e+00 | 0.000000e+00 |   0.00%

SCIP Status        : problem is solved [optimal solution found]
Solving Time (sec) : 3.14
Solving Nodes      : 1
Primal Bound       : +0.00000000000000e+00 (1 solutions)
Dual Bound         : +0.00000000000000e+00
Gap                : 0.00 %

primal solution:
================

objective value:                                    0
Taught#1#1#7                                        1 	(obj:0)
Taught#1#2#31                                       1 	(obj:0)
Taught#1#3#9                                        1 	(obj:0)
Taught#1#4#5                                        1 	(obj:0)
Taught#1#5#15                                       1 	(obj:0)
Taught#2#1#9                                        1 	(obj:0)
Taught#2#2#29                                       1 	(obj:0)
Taught#2#3#8                                        1 	(obj:0)
Taught#2#4#11                                       1 	(obj:0)
Taught#2#5#10                                       1 	(obj:0)
Taught#2#6#5                                        1 	(obj:0)
Taught#3#1#15                                       1 	(obj:0)
Taught#3#2#35                                       1 	(obj:0)
Taught#3#3#12                                       1 	(obj:0)
Taught#3#4#3                                        1 	(obj:0)
Taught#3#6#18                                       1 	(obj:0)
Taught#4#1#8                                        1 	(obj:0)
Taught#4#2#15                                       1 	(obj:0)
Taught#4#3#14                                       1 	(obj:0)
Taught#4#4#35                                       1 	(obj:0)
Taught#4#5#20                                       1 	(obj:0)
Taught#4#6#12                                       1 	(obj:0)
Taught#5#1#35                                       1 	(obj:0)
Taught#5#2#19                                       1 	(obj:0)
Taught#5#3#11                                       1 	(obj:0)
Taught#5#4#22                                       1 	(obj:0)
Taught#5#5#12                                       1 	(obj:0)
Taught#5#6#33                                       1 	(obj:0)
Taught#6#1#15                                       1 	(obj:0)
Taught#6#2#19                                       1 	(obj:0)
Taught#6#3#9                                        1 	(obj:0)
Taught#6#4#13                                       1 	(obj:0)
Taught#6#5#6                                        1 	(obj:0)
Taught#6#6#35                                       1 	(obj:0)
Taught#7#1#27                                       1 	(obj:0)
Taught#7#2#36                                       1 	(obj:0)
Taught#7#3#30                                       1 	(obj:0)
Taught#7#4#22                                       1 	(obj:0)
Taught#7#5#34                                       1 	(obj:0)
Taught#8#1#29                                       1 	(obj:0)
Taught#8#2#21                                       1 	(obj:0)
Taught#8#3#14                                       1 	(obj:0)
Taught#8#4#2                                        1 	(obj:0)
Taught#9#2#10                                       1 	(obj:0)
Taught#9#3#5                                        1 	(obj:0)
Taught#9#4#17                                       1 	(obj:0)
Taught#9#5#7                                        1 	(obj:0)
Taught#10#3#16                                      1 	(obj:0)
Taught#10#5#33                                      1 	(obj:0)
Taught#11#3#10                                      1 	(obj:0)
Taught#11#5#11                                      1 	(obj:0)
Taught#12#1#34                                      1 	(obj:0)
Taught#12#2#7                                       1 	(obj:0)
Taught#12#3#2                                       1 	(obj:0)
Taught#12#5#36                                      1 	(obj:0)
Taught#13#2#33                                      1 	(obj:0)
Taught#13#6#24                                      1 	(obj:0)
Taught#14#3#24                                      1 	(obj:0)
Taught#14#4#2                                       1 	(obj:0)
Taught#15#1#32                                      1 	(obj:0)
Taught#15#2#30                                      1 	(obj:0)
Taught#15#4#33                                      1 	(obj:0)
Taught#15#6#4                                       1 	(obj:0)
Taught#16#1#21                                      1 	(obj:0)
Taught#16#4#30                                      1 	(obj:0)
Taught#17#3#1                                       1 	(obj:0)
Taught#17#5#25                                      1 	(obj:0)
Taught#17#6#4                                       1 	(obj:0)
Taught#18#1#17                                      1 	(obj:0)
Taught#18#4#24                                      1 	(obj:0)
Taught#18#6#31                                      1 	(obj:0)
Taught#19#1#7                                       1 	(obj:0)
Taught#19#2#6                                       1 	(obj:0)
Taught#19#3#11                                      1 	(obj:0)
Taught#19#4#17                                      1 	(obj:0)
Taught#20#1#1                                       1 	(obj:0)
Taught#20#3#6                                       1 	(obj:0)
Taught#20#6#26                                      1 	(obj:0)
Taught#21#3#27                                      1 	(obj:0)
Taught#21#4#2                                       1 	(obj:0)
Taught#21#5#26                                      1 	(obj:0)
Taught#21#6#32                                      1 	(obj:0)
Taught#22#3#25                                      1 	(obj:0)
Taught#22#6#17                                      1 	(obj:0)
Taught#23#1#23                                      1 	(obj:0)
Taught#23#2#8                                       1 	(obj:0)
Taught#23#3#18                                      1 	(obj:0)
Taught#23#4#20                                      1 	(obj:0)
Taught#23#5#36                                      1 	(obj:0)
Taught#23#6#13                                      1 	(obj:0)
Taught#24#1#3                                       1 	(obj:0)
Taught#24#2#28                                      1 	(obj:0)
Taught#24#3#18                                      1 	(obj:0)
Taught#24#4#9                                       1 	(obj:0)
Taught#24#5#4                                       1 	(obj:0)
Taught#24#6#36                                      1 	(obj:0)
Taught#25#2#28                                      1 	(obj:0)
Taught#25#3#29                                      1 	(obj:0)
Taught#25#4#16                                      1 	(obj:0)
Taught#25#5#23                                      1 	(obj:0)

Statistics
==========

SCIP Status        : problem is solved [optimal solution found]
Solving Time       :       3.14
Original Problem   :
  Problem name     : random_1.ctt.c.zpl
  Variables        : 5400 (5400 binary, 0 integer, 0 implicit integer, 0 continuous)
  Constraints      : 1785 initial, 1785 maximal
Presolved Problem  :
  Problem name     : t_random_1.ctt.c.zpl
  Variables        : 4758 (4758 binary, 0 integer, 0 implicit integer, 0 continuous)
  Constraints      : 763 initial, 763 maximal
Presolvers         :       Time  FixedVars   AggrVars   ChgTypes  ChgBounds   AddHoles    DelCons   ChgSides   ChgCoefs
  trivial          :       0.00          0          0          0          0          0          0          0          0
  inttobinary      :       0.00          0          0          0          0          0          0          0          0
  dualfix          :       0.00          0          0          0          0          0          0          0          0
  implics          :       0.02          0          0          0          0          0          0          0          0
  probing          :       0.55          0          0          0          0          0          0          0          0
  setppc           :       0.02          0          0          0          0          0          0          0          0
  linear           :       0.13        642          0          0        642          0       1022        881          0
  root node        :          -          0          -          -          0          -          -          -          -
Constraints        :     Number  #Separate #Propagate    #EnfoLP    #EnfoPS    Cutoffs    DomReds       Cuts      Conss   Children
  integral         :          0          0          0          1          0          0          0          0          0          2
  setppc           :        707          6        201          0          0          0          0          0          0          0
  linear           :         56          6        201          0          0          0          0          0          0          0
Constraint Timings :  TotalTime   Separate  Propagate     EnfoLP     EnfoPS
  integral         :       1.17       0.00       0.00       1.17       0.00
  setppc           :       0.00       0.00       0.00       0.00       0.00
  linear           :       0.48       0.00       0.48       0.00       0.00
Propagators        :       Time      Calls    Cutoffs    DomReds
  rootredcost      :       0.00          0          0          0
  pseudoobj        :       0.00          1          0          0
Conflict Analysis  :       Time      Calls    Success  Conflicts   Literals    Reconvs ReconvLits   LP Iters
  propagation      :       0.00          0          0          0        0.0          0        0.0          -
  infeasible LP    :       0.00          0          0          0        0.0          0        0.0          0
  bound exceed. LP :       0.00          0          0          0        0.0          0        0.0          0
  strong branching :       0.00          0          0          0        0.0          0        0.0          0
  pseudo solution  :       0.00          0          0          0        0.0          0        0.0          -
  applied globally :          -          -          -          0        0.0          -          -          -
  applied locally  :          -          -          -          0        0.0          -          -          -
Separators         :       Time      Calls    Cutoffs    DomReds       Cuts      Conss
  cut pool         :       0.00          5          -          -          0          -    (maximal pool size: 25)
  redcost          :       0.00          6          0          0          0          0
  impliedbounds    :       0.01          6          0          0          0          0
  intobj           :       0.00          0          0          0          0          0
  gomory           :       0.00          6          0          0          0          0
  strongcg         :       0.03          6          0          0          0          0
  cmir             :       0.39          6          0          0          0          0
  clique           :       0.03          6          0          0         25          0
Pricers            :       Time      Calls       Vars
  problem variables:       0.00          0          0
Branching Rules    :       Time      Calls    Cutoffs    DomReds       Cuts      Conss   Children
  relpscost        :       1.17          1          0          0          0          0          2
  pscost           :       0.00          0          0          0          0          0          0
  inference        :       0.00          0          0          0          0          0          0
  mostinf          :       0.00          0          0          0          0          0          0
  leastinf         :       0.00          0          0          0          0          0          0
  fullstrong       :       0.00          0          0          0          0          0          0
  allfullstrong    :       0.00          0          0          0          0          0          0
Primal Heuristics  :       Time      Calls      Found
  LP solutions     :       0.00          -          0
  pseudo solutions :       0.00          -          0
  octane           :       0.00          0          0
  simplerounding   :       0.00          7          0
  rounding         :       0.01          7          0
  shifting         :       0.11          7          0
  fixandinfer      :       0.00          0          0
  feaspump         :       0.31          1          1
  coefdiving       :       0.00          0          0
  pscostdiving     :       0.00          0          0
  fracdiving       :       0.00          0          0
  intdiving        :       0.00          0          0
  objpscostdiving  :       0.00          0          0
  rootsoldiving    :       0.00          0          0
  linesearchdiving :       0.00          0          0
  guideddiving     :       0.00          0          0
  rins             :       0.00          0          0
  localbranching   :       0.00          0          0
  crossover        :       0.00          0          0
LP                 :       Time      Calls Iterations  Iter/call   Iter/sec
  primal LP        :       0.00          0          0       0.00          -
  dual LP          :       0.20          7        808     115.43    4040.00
  barrier LP       :       0.00          0          0       0.00          -
  diving/probing LP:       0.30          1        311     311.00    1036.67
  strong branching :       1.17         33       2676      81.09    2287.18
    (at root node) :          -         33       2676      81.09          -
  conflict analysis:       0.00          0          0       0.00          -
B&B Tree           :
  number of runs   :          1
  nodes            :          1
  nodes (total)    :          1
  nodes left       :          0
  max depth        :          0
  max depth (total):          0
  backtracks       :          0 (0.0%)
  delayed cutoffs  :          0
  repropagations   :          0 (0 domain reductions, 0 cutoffs)
  avg switch length:       2.00
  switching time   :       0.00
Solution           :
  Solutions found  :          1 (1 improvements)
  Primal Bound     : +0.00000000000000e+00   (in run 1, after 1 nodes, 3.13 seconds, depth 0, found by <feaspump>)
  Dual Bound       : +0.00000000000000e+00
  Gap              :       0.00 %
  Root Dual Bound  : +0.00000000000000e+00
cp: copying multiple files, but last argument `/home/psxjm3/' is not a directory
Try `cp --help' for more information.
